500          47967001000          160253001500          25990002000          46789002500          65910003000          102272003500          127048004000          169629004500          217503005000          27017400500          63841001000          11249001500          91986002000          45723002500          71043003000          98681003500          138614004000          180253004500          216589005000          26048700500          61000          11500          92000          132500          73000          103500          134000          164500          215000          26500          31000          11500          92000          42500          73000          133500          144000          194500          405000          27500          51000          151500          22000          42500          73000          93500          134000          164500          215000          27500          51000          151500          22000          42500          73000          93500          134000          174500          215000          25500          51000          161500          22000          42500          63000          103500          124000          154500          215000          25500          51000          121500          22000          42500          63000          103500          124000          164500          205000          27500          5500          4500          5500          81000          61500          32000          52500          83000          133500          184000          234500          285000          34500          81000          11500          32000          52500          83000          123500          174000          224500          285000          36500          01000          01500          02000          02500          03000          03500          04000          0